/*********************************************
 * OPL 12.6.0.0 Data
 * Author: Adrian Rodriguez Bazaga, Pau Rodriguez Esmerats
 * Creation Date: 06/12/2017 at 23:03:09
 *********************************************/

nNurses=278;
maxConsec=2;
maxPresence=7;
maxHours=5;
minHours=1;
hours=24;
demand= [52 54 67 73 54 67 73 57 46 28 4 11 9 13 10 10 9 6 6 2 35 61 27 56  ];
